
Gurobi 9.5.1 (win64) logging started Sat Nov 11 14:34:18 2023

Set parameter LogFile to value "consol_sol_3_time_3600_ver2.1.txt"
Set parameter TimeLimit to value 3600
Gurobi Optimizer version 9.5.1 build v9.5.1rc2 (win64)
Thread count: 4 physical cores, 8 logical processors, using up to 8 threads
Optimize a model with 135033 rows, 42970 columns and 1729064 nonzeros
Model fingerprint: 0x6db6b108
Variable types: 0 continuous, 42970 integer (42970 binary)
Coefficient statistics:
  Matrix range     [1e+00, 4e+01]
  Objective range  [1e+00, 3e+00]
  Bounds range     [1e+00, 1e+00]
  RHS range        [1e+00, 3e+01]
Found heuristic solution: objective -0.0000000
Presolve removed 18580 rows and 0 columns (presolve time = 8s) ...
Presolve removed 20178 rows and 1802 columns (presolve time = 10s) ...
Presolve removed 19578 rows and 1202 columns
Presolve time: 11.36s
Presolved: 115455 rows, 41768 columns, 752095 nonzeros
Variable types: 0 continuous, 41768 integer (41708 binary)

Deterministic concurrent LP optimizer: primal and dual simplex (primal and dual model)
Showing first log only...

Root relaxation presolved: 115455 rows, 41768 columns, 752095 nonzeros


Root simplex log...

Iteration    Objective       Primal Inf.    Dual Inf.      Time
       0   -0.0000000e+00   0.000000e+00   2.255000e+03     13s
   10838    1.4839133e+01   0.000000e+00   4.656393e+05     15s
   15502    5.9382935e+01   0.000000e+00   4.344295e+04     20s
   17437    1.0065444e+02   0.000000e+00   7.644787e+05     25s
   19064    1.2249454e+02   0.000000e+00   2.332357e+06     30s
   20523    1.6075416e+02   0.000000e+00   2.584816e+05     35s
   22056    1.6514668e+02   0.000000e+00   8.037039e+05     40s
   23163    1.6611233e+02   0.000000e+00   4.696332e+05     46s
   24087    1.6668489e+02   0.000000e+00   2.164277e+05     50s
   25011    1.7612123e+02   0.000000e+00   1.706560e+09     55s
   26341    2.0950438e+02   0.000000e+00   1.203709e+06     60s
   27397    2.1291497e+02   0.000000e+00   1.217712e+05     66s
   28585    2.1466768e+02   0.000000e+00   3.032211e+05     70s
   29773    2.1651230e+02   0.000000e+00   4.057069e+04     76s
   30697    2.1746210e+02   0.000000e+00   1.578667e+04     80s
   31759    2.1873504e+02   0.000000e+00   1.108931e+06     85s
   32683    2.1908734e+02   0.000000e+00   9.691670e+05     91s
   33607    2.1978898e+02   0.000000e+00   9.351731e+05     96s
   34733    2.2094951e+02   0.000000e+00   8.243233e+05    100s
   35657    2.2137291e+02   0.000000e+00   4.371998e+06    105s
   36581    2.2161985e+02   0.000000e+00   4.571621e+04    111s
   37505    2.2199652e+02   0.000000e+00   1.664121e+05    115s
   38561    2.2249220e+02   0.000000e+00   3.179190e+04    121s
   39485    2.2286084e+02   0.000000e+00   5.805576e+04    125s
   40300    2.2300903e+02   0.000000e+00   3.738977e+03    130s
   41224    2.2320074e+02   0.000000e+00   9.882140e+03    135s
   42148    2.2336103e+02   0.000000e+00   6.077409e+06    141s
   43231    2.2356467e+02   0.000000e+00   9.823359e+03    146s
   44180    2.2376732e+02   0.000000e+00   2.554895e+05    150s
   45333    2.2391809e+02   0.000000e+00   1.834227e+05    155s
   46257    2.2398065e+02   0.000000e+00   5.069038e+04    160s
   47181    2.2405662e+02   0.000000e+00   1.206686e+04    165s
   48120    2.2416458e+02   0.000000e+00   6.167597e+03    170s
   49044    2.2419427e+02   0.000000e+00   4.931856e+04    175s
   49968    2.2429920e+02   0.000000e+00   2.349055e+04    180s
   51024    2.2434038e+02   0.000000e+00   2.490818e+05    186s
   51953    2.2437186e+02   0.000000e+00   2.407581e+04    190s
   52745    2.2438801e+02   0.000000e+00   1.516428e+04    195s
   53669    2.2441211e+02   0.000000e+00   1.428154e+05    201s
Concurrent spin time: 10.93s

Solved with dual simplex (primal model)

Root relaxation: objective 2.245298e+02, 61481 iterations, 203.00 seconds (121.06 work units)
Total elapsed time = 238.09s
Total elapsed time = 243.13s
Total elapsed time = 246.02s

    Nodes    |    Current Node    |     Objective Bounds      |     Work
 Expl Unexpl |  Obj  Depth IntInf | Incumbent    BestBd   Gap | It/Node Time

     0     0  224.52977    0 4892   -0.00000  224.52977      -     -  256s
H    0     0                      30.0000000  224.52977   648%     -  259s
     0     0  176.30540    0 4221   30.00000  176.30540   488%     -  605s
     0     0  175.54509    0 4142   30.00000  175.54509   485%     -  616s
     0     0  175.54509    0 4141   30.00000  175.54509   485%     -  617s
     0     0  174.50000    0 4356   30.00000  174.50000   482%     -  746s
H    0     0                      48.0000000  174.50000   264%     -  749s
     0     0  173.48612    0 4321   48.00000  173.48612   261%     -  800s
     0     0  173.48612    0 4342   48.00000  173.48612   261%     -  805s
     0     0  173.30000    0 4691   48.00000  173.30000   261%     -  915s
     0     0  173.21875    0 4569   48.00000  173.21875   261%     -  948s
     0     0  173.21875    0 4538   48.00000  173.21875   261%     -  958s
     0     0  173.13637    0 4224   48.00000  173.13637   261%     - 1042s
H    0     0                      72.0000000  173.13637   140%     - 1062s
     0     0  173.09616    0 4290   72.00000  173.09616   140%     - 1079s
     0     0  173.09616    0 4168   72.00000  173.09616   140%     - 1083s
     0     0  173.00000    0 4395   72.00000  173.00000   140%     - 1145s
     0     0  173.00000    0 4388   72.00000  173.00000   140%     - 1164s
     0     0  173.00000    0 4654   72.00000  173.00000   140%     - 1229s
H    0     0                      86.0000000  173.00000   101%     - 1237s
     0     0  173.00000    0 4687   86.00000  173.00000   101%     - 1257s
     0     0  173.00000    0 2653   86.00000  173.00000   101%     - 1811s
     0     0  173.00000    0 2882   86.00000  173.00000   101%     - 1846s
     0     0  173.00000    0 2425   86.00000  173.00000   101%     - 2422s
     0     0  173.00000    0 2935   86.00000  173.00000   101%     - 2477s
     0     0  173.00000    0 3118   86.00000  173.00000   101%     - 2913s
     0     0  173.00000    0 3213   86.00000  173.00000   101%     - 2958s
     0     0  173.00000    0 3613   86.00000  173.00000   101%     - 3600s

Cutting planes:
  Gomory: 9
  Cover: 81
  Implied bound: 165
  Clique: 2268
  MIR: 298
  StrongCG: 37
  GUB cover: 128
  Zero half: 474
  RLT: 625
  Relax-and-lift: 1
  BQP: 19
  PSD: 17

Explored 1 nodes (950188 simplex iterations) in 3600.04 seconds (4778.73 work units)
Thread count was 8 (of 8 available processors)

Solution count 5: 86 72 48 ... -0

Time limit reached
Best objective 8.600000000000e+01, best bound 1.730000000000e+02, gap 101.1628%
